113
156
98
109
57
97
145
101
79
127
86
148
69
170
121
215
163
107
141
90
63
139
96
126
111
116
85
77
86
90
92
136
166
160
87
58
147
84
110
96
77
119
66
96
96
127
213
138
177
174
110
83
194
153
95
82
141
116
80
100
115
113
88
94
84
76
115
97
76
120
108
167
69
126
95
118
92
131
165
95
98
115
164
118
84
113
99
78
0
154
108
118
118
162
109
165
89
92
113
72
